22774
0 1 1 1 1 1 0 1 0 1 1 1 1 1 0 0 1 0 1 0 1 1 1 0 0 0 1 1 1 1
21 28 7 16 20 22 13 18 21 1 26 13 26 7 28 21 27 18 7 5 21 27 27 7 16 22 20 29 5 13 4 13 10 7 4 21 27 21 2 5 11 13 10 10 21 22 20 9 5 9 10 13 16 7 13 22 28 3 13 11 22 16 16 7 9 4 2 22 9 4 20 22 18 21 4 22 12 16 5 7 11 13 10 10 1 26 27 26 16 5 4 13 18 9 4 26 13 18 21 16 4 2 28 9 3 22 20 9 7 9 22 20 16 5 9 10 27 9 7 5 10 20 9 26 12 10 20 29 7 2 10 13 16 7 7 21 18 3 3 11 4 13 18 21 1 22 27 29 7 11